(set-logic QF_LRA)
(declare-fun X0 () Real )
(declare-fun Y0 () Real )
(declare-fun X1 () Real )
(declare-fun Y1 () Real )
(declare-fun X2 () Real )
(declare-fun Y2 () Real )
(declare-fun X3 () Real )
(declare-fun Y3 () Real )
(declare-fun X4 () Real )
(declare-fun Y4 () Real )
(declare-fun X5 () Real )
(declare-fun Y5 () Real )
(declare-fun X6 () Real )
(declare-fun Y6 () Real )
(declare-fun X7 () Real )
(declare-fun Y7 () Real )
(declare-fun X8 () Real )
(declare-fun Y8 () Real )
(declare-fun X9 () Real )
(declare-fun Y9 () Real )
(declare-fun X10 () Real )
(declare-fun Y10 () Real )
(declare-fun X11 () Real )
(declare-fun Y11 () Real )
(declare-fun X12 () Real )
(declare-fun Y12 () Real )
(declare-fun X13 () Real )
(declare-fun Y13 () Real )
(declare-fun X14 () Real )
(declare-fun Y14 () Real )
(declare-fun Z () Real )
(declare-fun k () Real )
(assert (let
(( $goal (>= Z k) ))
(let
((
$phi ( and 
( or ( <= ( + X0 70 ) X1 )  ( <= ( + X1 64 ) X0 )  ( <= ( + Y0 41 ) Y1 )  ( <= ( + Y1 22 ) Y0 )  )
( or ( <= ( + X0 70 ) X2 )  ( <= ( + X2 9 ) X0 )  ( <= ( + Y0 41 ) Y2 )  ( <= ( + Y2 100 ) Y0 )  )
( or ( <= ( + X0 70 ) X3 )  ( <= ( + X3 70 ) X0 )  ( <= ( + Y0 41 ) Y3 )  ( <= ( + Y3 81 ) Y0 )  )
( or ( <= ( + X0 70 ) X4 )  ( <= ( + X4 18 ) X0 )  ( <= ( + Y0 41 ) Y4 )  ( <= ( + Y4 98 ) Y0 )  )
( or ( <= ( + X0 70 ) X5 )  ( <= ( + X5 85 ) X0 )  ( <= ( + Y0 41 ) Y5 )  ( <= ( + Y5 41 ) Y0 )  )
( or ( <= ( + X0 70 ) X6 )  ( <= ( + X6 92 ) X0 )  ( <= ( + Y0 41 ) Y6 )  ( <= ( + Y6 43 ) Y0 )  )
( or ( <= ( + X0 70 ) X7 )  ( <= ( + X7 87 ) X0 )  ( <= ( + Y0 41 ) Y7 )  ( <= ( + Y7 13 ) Y0 )  )
( or ( <= ( + X0 70 ) X8 )  ( <= ( + X8 65 ) X0 )  ( <= ( + Y0 41 ) Y8 )  ( <= ( + Y8 4 ) Y0 )  )
( or ( <= ( + X0 70 ) X9 )  ( <= ( + X9 25 ) X0 )  ( <= ( + Y0 41 ) Y9 )  ( <= ( + Y9 32 ) Y0 )  )
( or ( <= ( + X0 70 ) X10 )  ( <= ( + X10 70 ) X0 )  ( <= ( + Y0 41 ) Y10 )  ( <= ( + Y10 58 ) Y0 )  )
( or ( <= ( + X0 70 ) X11 )  ( <= ( + X11 50 ) X0 )  ( <= ( + Y0 41 ) Y11 )  ( <= ( + Y11 11 ) Y0 )  )
( or ( <= ( + X0 70 ) X12 )  ( <= ( + X12 58 ) X0 )  ( <= ( + Y0 41 ) Y12 )  ( <= ( + Y12 14 ) Y0 )  )
( or ( <= ( + X0 70 ) X13 )  ( <= ( + X13 30 ) X0 )  ( <= ( + Y0 41 ) Y13 )  ( <= ( + Y13 21 ) Y0 )  )
( or ( <= ( + X0 70 ) X14 )  ( <= ( + X14 20 ) X0 )  ( <= ( + Y0 41 ) Y14 )  ( <= ( + Y14 82 ) Y0 )  )
( or ( <= ( + X1 64 ) X2 )  ( <= ( + X2 9 ) X1 )  ( <= ( + Y1 22 ) Y2 )  ( <= ( + Y2 100 ) Y1 )  )
( or ( <= ( + X1 64 ) X3 )  ( <= ( + X3 70 ) X1 )  ( <= ( + Y1 22 ) Y3 )  ( <= ( + Y3 81 ) Y1 )  )
( or ( <= ( + X1 64 ) X4 )  ( <= ( + X4 18 ) X1 )  ( <= ( + Y1 22 ) Y4 )  ( <= ( + Y4 98 ) Y1 )  )
( or ( <= ( + X1 64 ) X5 )  ( <= ( + X5 85 ) X1 )  ( <= ( + Y1 22 ) Y5 )  ( <= ( + Y5 41 ) Y1 )  )
( or ( <= ( + X1 64 ) X6 )  ( <= ( + X6 92 ) X1 )  ( <= ( + Y1 22 ) Y6 )  ( <= ( + Y6 43 ) Y1 )  )
( or ( <= ( + X1 64 ) X7 )  ( <= ( + X7 87 ) X1 )  ( <= ( + Y1 22 ) Y7 )  ( <= ( + Y7 13 ) Y1 )  )
( or ( <= ( + X1 64 ) X8 )  ( <= ( + X8 65 ) X1 )  ( <= ( + Y1 22 ) Y8 )  ( <= ( + Y8 4 ) Y1 )  )
( or ( <= ( + X1 64 ) X9 )  ( <= ( + X9 25 ) X1 )  ( <= ( + Y1 22 ) Y9 )  ( <= ( + Y9 32 ) Y1 )  )
( or ( <= ( + X1 64 ) X10 )  ( <= ( + X10 70 ) X1 )  ( <= ( + Y1 22 ) Y10 )  ( <= ( + Y10 58 ) Y1 )  )
( or ( <= ( + X1 64 ) X11 )  ( <= ( + X11 50 ) X1 )  ( <= ( + Y1 22 ) Y11 )  ( <= ( + Y11 11 ) Y1 )  )
( or ( <= ( + X1 64 ) X12 )  ( <= ( + X12 58 ) X1 )  ( <= ( + Y1 22 ) Y12 )  ( <= ( + Y12 14 ) Y1 )  )
( or ( <= ( + X1 64 ) X13 )  ( <= ( + X13 30 ) X1 )  ( <= ( + Y1 22 ) Y13 )  ( <= ( + Y13 21 ) Y1 )  )
( or ( <= ( + X1 64 ) X14 )  ( <= ( + X14 20 ) X1 )  ( <= ( + Y1 22 ) Y14 )  ( <= ( + Y14 82 ) Y1 )  )
( or ( <= ( + X2 9 ) X3 )  ( <= ( + X3 70 ) X2 )  ( <= ( + Y2 100 ) Y3 )  ( <= ( + Y3 81 ) Y2 )  )
( or ( <= ( + X2 9 ) X4 )  ( <= ( + X4 18 ) X2 )  ( <= ( + Y2 100 ) Y4 )  ( <= ( + Y4 98 ) Y2 )  )
( or ( <= ( + X2 9 ) X5 )  ( <= ( + X5 85 ) X2 )  ( <= ( + Y2 100 ) Y5 )  ( <= ( + Y5 41 ) Y2 )  )
( or ( <= ( + X2 9 ) X6 )  ( <= ( + X6 92 ) X2 )  ( <= ( + Y2 100 ) Y6 )  ( <= ( + Y6 43 ) Y2 )  )
( or ( <= ( + X2 9 ) X7 )  ( <= ( + X7 87 ) X2 )  ( <= ( + Y2 100 ) Y7 )  ( <= ( + Y7 13 ) Y2 )  )
( or ( <= ( + X2 9 ) X8 )  ( <= ( + X8 65 ) X2 )  ( <= ( + Y2 100 ) Y8 )  ( <= ( + Y8 4 ) Y2 )  )
( or ( <= ( + X2 9 ) X9 )  ( <= ( + X9 25 ) X2 )  ( <= ( + Y2 100 ) Y9 )  ( <= ( + Y9 32 ) Y2 )  )
( or ( <= ( + X2 9 ) X10 )  ( <= ( + X10 70 ) X2 )  ( <= ( + Y2 100 ) Y10 )  ( <= ( + Y10 58 ) Y2 )  )
( or ( <= ( + X2 9 ) X11 )  ( <= ( + X11 50 ) X2 )  ( <= ( + Y2 100 ) Y11 )  ( <= ( + Y11 11 ) Y2 )  )
( or ( <= ( + X2 9 ) X12 )  ( <= ( + X12 58 ) X2 )  ( <= ( + Y2 100 ) Y12 )  ( <= ( + Y12 14 ) Y2 )  )
( or ( <= ( + X2 9 ) X13 )  ( <= ( + X13 30 ) X2 )  ( <= ( + Y2 100 ) Y13 )  ( <= ( + Y13 21 ) Y2 )  )
( or ( <= ( + X2 9 ) X14 )  ( <= ( + X14 20 ) X2 )  ( <= ( + Y2 100 ) Y14 )  ( <= ( + Y14 82 ) Y2 )  )
( or ( <= ( + X3 70 ) X4 )  ( <= ( + X4 18 ) X3 )  ( <= ( + Y3 81 ) Y4 )  ( <= ( + Y4 98 ) Y3 )  )
( or ( <= ( + X3 70 ) X5 )  ( <= ( + X5 85 ) X3 )  ( <= ( + Y3 81 ) Y5 )  ( <= ( + Y5 41 ) Y3 )  )
( or ( <= ( + X3 70 ) X6 )  ( <= ( + X6 92 ) X3 )  ( <= ( + Y3 81 ) Y6 )  ( <= ( + Y6 43 ) Y3 )  )
( or ( <= ( + X3 70 ) X7 )  ( <= ( + X7 87 ) X3 )  ( <= ( + Y3 81 ) Y7 )  ( <= ( + Y7 13 ) Y3 )  )
( or ( <= ( + X3 70 ) X8 )  ( <= ( + X8 65 ) X3 )  ( <= ( + Y3 81 ) Y8 )  ( <= ( + Y8 4 ) Y3 )  )
( or ( <= ( + X3 70 ) X9 )  ( <= ( + X9 25 ) X3 )  ( <= ( + Y3 81 ) Y9 )  ( <= ( + Y9 32 ) Y3 )  )
( or ( <= ( + X3 70 ) X10 )  ( <= ( + X10 70 ) X3 )  ( <= ( + Y3 81 ) Y10 )  ( <= ( + Y10 58 ) Y3 )  )
( or ( <= ( + X3 70 ) X11 )  ( <= ( + X11 50 ) X3 )  ( <= ( + Y3 81 ) Y11 )  ( <= ( + Y11 11 ) Y3 )  )
( or ( <= ( + X3 70 ) X12 )  ( <= ( + X12 58 ) X3 )  ( <= ( + Y3 81 ) Y12 )  ( <= ( + Y12 14 ) Y3 )  )
( or ( <= ( + X3 70 ) X13 )  ( <= ( + X13 30 ) X3 )  ( <= ( + Y3 81 ) Y13 )  ( <= ( + Y13 21 ) Y3 )  )
( or ( <= ( + X3 70 ) X14 )  ( <= ( + X14 20 ) X3 )  ( <= ( + Y3 81 ) Y14 )  ( <= ( + Y14 82 ) Y3 )  )
( or ( <= ( + X4 18 ) X5 )  ( <= ( + X5 85 ) X4 )  ( <= ( + Y4 98 ) Y5 )  ( <= ( + Y5 41 ) Y4 )  )
( or ( <= ( + X4 18 ) X6 )  ( <= ( + X6 92 ) X4 )  ( <= ( + Y4 98 ) Y6 )  ( <= ( + Y6 43 ) Y4 )  )
( or ( <= ( + X4 18 ) X7 )  ( <= ( + X7 87 ) X4 )  ( <= ( + Y4 98 ) Y7 )  ( <= ( + Y7 13 ) Y4 )  )
( or ( <= ( + X4 18 ) X8 )  ( <= ( + X8 65 ) X4 )  ( <= ( + Y4 98 ) Y8 )  ( <= ( + Y8 4 ) Y4 )  )
( or ( <= ( + X4 18 ) X9 )  ( <= ( + X9 25 ) X4 )  ( <= ( + Y4 98 ) Y9 )  ( <= ( + Y9 32 ) Y4 )  )
( or ( <= ( + X4 18 ) X10 )  ( <= ( + X10 70 ) X4 )  ( <= ( + Y4 98 ) Y10 )  ( <= ( + Y10 58 ) Y4 )  )
( or ( <= ( + X4 18 ) X11 )  ( <= ( + X11 50 ) X4 )  ( <= ( + Y4 98 ) Y11 )  ( <= ( + Y11 11 ) Y4 )  )
( or ( <= ( + X4 18 ) X12 )  ( <= ( + X12 58 ) X4 )  ( <= ( + Y4 98 ) Y12 )  ( <= ( + Y12 14 ) Y4 )  )
( or ( <= ( + X4 18 ) X13 )  ( <= ( + X13 30 ) X4 )  ( <= ( + Y4 98 ) Y13 )  ( <= ( + Y13 21 ) Y4 )  )
( or ( <= ( + X4 18 ) X14 )  ( <= ( + X14 20 ) X4 )  ( <= ( + Y4 98 ) Y14 )  ( <= ( + Y14 82 ) Y4 )  )
( or ( <= ( + X5 85 ) X6 )  ( <= ( + X6 92 ) X5 )  ( <= ( + Y5 41 ) Y6 )  ( <= ( + Y6 43 ) Y5 )  )
( or ( <= ( + X5 85 ) X7 )  ( <= ( + X7 87 ) X5 )  ( <= ( + Y5 41 ) Y7 )  ( <= ( + Y7 13 ) Y5 )  )
( or ( <= ( + X5 85 ) X8 )  ( <= ( + X8 65 ) X5 )  ( <= ( + Y5 41 ) Y8 )  ( <= ( + Y8 4 ) Y5 )  )
( or ( <= ( + X5 85 ) X9 )  ( <= ( + X9 25 ) X5 )  ( <= ( + Y5 41 ) Y9 )  ( <= ( + Y9 32 ) Y5 )  )
( or ( <= ( + X5 85 ) X10 )  ( <= ( + X10 70 ) X5 )  ( <= ( + Y5 41 ) Y10 )  ( <= ( + Y10 58 ) Y5 )  )
( or ( <= ( + X5 85 ) X11 )  ( <= ( + X11 50 ) X5 )  ( <= ( + Y5 41 ) Y11 )  ( <= ( + Y11 11 ) Y5 )  )
( or ( <= ( + X5 85 ) X12 )  ( <= ( + X12 58 ) X5 )  ( <= ( + Y5 41 ) Y12 )  ( <= ( + Y12 14 ) Y5 )  )
( or ( <= ( + X5 85 ) X13 )  ( <= ( + X13 30 ) X5 )  ( <= ( + Y5 41 ) Y13 )  ( <= ( + Y13 21 ) Y5 )  )
( or ( <= ( + X5 85 ) X14 )  ( <= ( + X14 20 ) X5 )  ( <= ( + Y5 41 ) Y14 )  ( <= ( + Y14 82 ) Y5 )  )
( or ( <= ( + X6 92 ) X7 )  ( <= ( + X7 87 ) X6 )  ( <= ( + Y6 43 ) Y7 )  ( <= ( + Y7 13 ) Y6 )  )
( or ( <= ( + X6 92 ) X8 )  ( <= ( + X8 65 ) X6 )  ( <= ( + Y6 43 ) Y8 )  ( <= ( + Y8 4 ) Y6 )  )
( or ( <= ( + X6 92 ) X9 )  ( <= ( + X9 25 ) X6 )  ( <= ( + Y6 43 ) Y9 )  ( <= ( + Y9 32 ) Y6 )  )
( or ( <= ( + X6 92 ) X10 )  ( <= ( + X10 70 ) X6 )  ( <= ( + Y6 43 ) Y10 )  ( <= ( + Y10 58 ) Y6 )  )
( or ( <= ( + X6 92 ) X11 )  ( <= ( + X11 50 ) X6 )  ( <= ( + Y6 43 ) Y11 )  ( <= ( + Y11 11 ) Y6 )  )
( or ( <= ( + X6 92 ) X12 )  ( <= ( + X12 58 ) X6 )  ( <= ( + Y6 43 ) Y12 )  ( <= ( + Y12 14 ) Y6 )  )
( or ( <= ( + X6 92 ) X13 )  ( <= ( + X13 30 ) X6 )  ( <= ( + Y6 43 ) Y13 )  ( <= ( + Y13 21 ) Y6 )  )
( or ( <= ( + X6 92 ) X14 )  ( <= ( + X14 20 ) X6 )  ( <= ( + Y6 43 ) Y14 )  ( <= ( + Y14 82 ) Y6 )  )
( or ( <= ( + X7 87 ) X8 )  ( <= ( + X8 65 ) X7 )  ( <= ( + Y7 13 ) Y8 )  ( <= ( + Y8 4 ) Y7 )  )
( or ( <= ( + X7 87 ) X9 )  ( <= ( + X9 25 ) X7 )  ( <= ( + Y7 13 ) Y9 )  ( <= ( + Y9 32 ) Y7 )  )
( or ( <= ( + X7 87 ) X10 )  ( <= ( + X10 70 ) X7 )  ( <= ( + Y7 13 ) Y10 )  ( <= ( + Y10 58 ) Y7 )  )
( or ( <= ( + X7 87 ) X11 )  ( <= ( + X11 50 ) X7 )  ( <= ( + Y7 13 ) Y11 )  ( <= ( + Y11 11 ) Y7 )  )
( or ( <= ( + X7 87 ) X12 )  ( <= ( + X12 58 ) X7 )  ( <= ( + Y7 13 ) Y12 )  ( <= ( + Y12 14 ) Y7 )  )
( or ( <= ( + X7 87 ) X13 )  ( <= ( + X13 30 ) X7 )  ( <= ( + Y7 13 ) Y13 )  ( <= ( + Y13 21 ) Y7 )  )
( or ( <= ( + X7 87 ) X14 )  ( <= ( + X14 20 ) X7 )  ( <= ( + Y7 13 ) Y14 )  ( <= ( + Y14 82 ) Y7 )  )
( or ( <= ( + X8 65 ) X9 )  ( <= ( + X9 25 ) X8 )  ( <= ( + Y8 4 ) Y9 )  ( <= ( + Y9 32 ) Y8 )  )
( or ( <= ( + X8 65 ) X10 )  ( <= ( + X10 70 ) X8 )  ( <= ( + Y8 4 ) Y10 )  ( <= ( + Y10 58 ) Y8 )  )
( or ( <= ( + X8 65 ) X11 )  ( <= ( + X11 50 ) X8 )  ( <= ( + Y8 4 ) Y11 )  ( <= ( + Y11 11 ) Y8 )  )
( or ( <= ( + X8 65 ) X12 )  ( <= ( + X12 58 ) X8 )  ( <= ( + Y8 4 ) Y12 )  ( <= ( + Y12 14 ) Y8 )  )
( or ( <= ( + X8 65 ) X13 )  ( <= ( + X13 30 ) X8 )  ( <= ( + Y8 4 ) Y13 )  ( <= ( + Y13 21 ) Y8 )  )
( or ( <= ( + X8 65 ) X14 )  ( <= ( + X14 20 ) X8 )  ( <= ( + Y8 4 ) Y14 )  ( <= ( + Y14 82 ) Y8 )  )
( or ( <= ( + X9 25 ) X10 )  ( <= ( + X10 70 ) X9 )  ( <= ( + Y9 32 ) Y10 )  ( <= ( + Y10 58 ) Y9 )  )
( or ( <= ( + X9 25 ) X11 )  ( <= ( + X11 50 ) X9 )  ( <= ( + Y9 32 ) Y11 )  ( <= ( + Y11 11 ) Y9 )  )
( or ( <= ( + X9 25 ) X12 )  ( <= ( + X12 58 ) X9 )  ( <= ( + Y9 32 ) Y12 )  ( <= ( + Y12 14 ) Y9 )  )
( or ( <= ( + X9 25 ) X13 )  ( <= ( + X13 30 ) X9 )  ( <= ( + Y9 32 ) Y13 )  ( <= ( + Y13 21 ) Y9 )  )
( or ( <= ( + X9 25 ) X14 )  ( <= ( + X14 20 ) X9 )  ( <= ( + Y9 32 ) Y14 )  ( <= ( + Y14 82 ) Y9 )  )
( or ( <= ( + X10 70 ) X11 )  ( <= ( + X11 50 ) X10 )  ( <= ( + Y10 58 ) Y11 )  ( <= ( + Y11 11 ) Y10 )  )
( or ( <= ( + X10 70 ) X12 )  ( <= ( + X12 58 ) X10 )  ( <= ( + Y10 58 ) Y12 )  ( <= ( + Y12 14 ) Y10 )  )
( or ( <= ( + X10 70 ) X13 )  ( <= ( + X13 30 ) X10 )  ( <= ( + Y10 58 ) Y13 )  ( <= ( + Y13 21 ) Y10 )  )
( or ( <= ( + X10 70 ) X14 )  ( <= ( + X14 20 ) X10 )  ( <= ( + Y10 58 ) Y14 )  ( <= ( + Y14 82 ) Y10 )  )
( or ( <= ( + X11 50 ) X12 )  ( <= ( + X12 58 ) X11 )  ( <= ( + Y11 11 ) Y12 )  ( <= ( + Y12 14 ) Y11 )  )
( or ( <= ( + X11 50 ) X13 )  ( <= ( + X13 30 ) X11 )  ( <= ( + Y11 11 ) Y13 )  ( <= ( + Y13 21 ) Y11 )  )
( or ( <= ( + X11 50 ) X14 )  ( <= ( + X14 20 ) X11 )  ( <= ( + Y11 11 ) Y14 )  ( <= ( + Y14 82 ) Y11 )  )
( or ( <= ( + X12 58 ) X13 )  ( <= ( + X13 30 ) X12 )  ( <= ( + Y12 14 ) Y13 )  ( <= ( + Y13 21 ) Y12 )  )
( or ( <= ( + X12 58 ) X14 )  ( <= ( + X14 20 ) X12 )  ( <= ( + Y12 14 ) Y14 )  ( <= ( + Y14 82 ) Y12 )  )
( or ( <= ( + X13 30 ) X14 )  ( <= ( + X14 20 ) X13 )  ( <= ( + Y13 21 ) Y14 )  ( <= ( + Y14 82 ) Y13 )  )
( >= X0 0)
( <= ( + X0 70) Z)
( >= Y0 0)
( <= ( + Y0 41 ) 100)
( >= X1 0)
( <= ( + X1 64) Z)
( >= Y1 0)
( <= ( + Y1 22 ) 100)
( >= X2 0)
( <= ( + X2 9) Z)
( >= Y2 0)
( <= ( + Y2 100 ) 100)
( >= X3 0)
( <= ( + X3 70) Z)
( >= Y3 0)
( <= ( + Y3 81 ) 100)
( >= X4 0)
( <= ( + X4 18) Z)
( >= Y4 0)
( <= ( + Y4 98 ) 100)
( >= X5 0)
( <= ( + X5 85) Z)
( >= Y5 0)
( <= ( + Y5 41 ) 100)
( >= X6 0)
( <= ( + X6 92) Z)
( >= Y6 0)
( <= ( + Y6 43 ) 100)
( >= X7 0)
( <= ( + X7 87) Z)
( >= Y7 0)
( <= ( + Y7 13 ) 100)
( >= X8 0)
( <= ( + X8 65) Z)
( >= Y8 0)
( <= ( + Y8 4 ) 100)
( >= X9 0)
( <= ( + X9 25) Z)
( >= Y9 0)
( <= ( + Y9 32 ) 100)
( >= X10 0)
( <= ( + X10 70) Z)
( >= Y10 0)
( <= ( + Y10 58 ) 100)
( >= X11 0)
( <= ( + X11 50) Z)
( >= Y11 0)
( <= ( + Y11 11 ) 100)
( >= X12 0)
( <= ( + X12 58) Z)
( >= Y12 0)
( <= ( + Y12 14 ) 100)
( >= X13 0)
( <= ( + X13 30) Z)
( >= Y13 0)
( <= ( + Y13 21 ) 100)
( >= X14 0)
( <= ( + X14 20) Z)
( >= Y14 0)
( <= ( + Y14 82 ) 100)
) )
)(=> $phi $goal))))